Ti2 C1 O2
1.0
   3.0098520000000000    0.0000000000000000    0.0000000000000000
  -1.5049260000000000    2.6066082936308401    0.0000000000000000
   0.0000000000000000    0.0000000000000000   25.0000000000000000
Ti C O
2 1 2
direct
   0.6666666666666643    0.3333333333333357    0.3514231032125725 Ti
   0.3333333333333357    0.6666666666666643    0.2485768967874218 Ti
  -0.0000000000000000   -0.0000000000000000    0.2999999999999972 C
   0.6666666666666643    0.3333333333333357    0.2115050999866139 O
   0.3333333333333357    0.6666666666666643    0.3884949000133875 O
