Ti90 H48 C60 O48 F12
1.0
  15.3071603400000011    0.0000000000000004   -0.0000000000000000
   0.0000000000000000   15.9076634099999978   -0.0000000000000000
   0.0000000000000000    0.0000000000000000   40.0000000000000000
Ti C O H F
90 60 48 48 12
cartesian
   1.5307160340000001    0.8837608458514730   12.6530701399773804 Ti
   1.5307160340000001    6.1863153158514717   12.6530701399773804 Ti
   3.0614320680000002    3.5350380808514714   12.6530701399773804 Ti
   4.5921481020000003    0.8837608458514731   12.6530701399773804 Ti
   1.5307160340000001   11.4888697858514703   12.6530701399773804 Ti
   3.0614320680000002    8.8375925508514719   12.6530701399773804 Ti
   4.5921481020000003    6.1863153158514717   12.6530701399773804 Ti
   6.1228641360000013    3.5350380808514732   12.6530701399773804 Ti
   7.6535801700000006    0.8837608458514732   12.6530701399773804 Ti
   3.0614320680000002   14.1401470208514688   12.6530701399773804 Ti
   4.5921481020000021   11.4888697858514703   12.6530701399773804 Ti
   6.1228641360000013    8.8375925508514719   12.6530701399773804 Ti
   7.6535801700000006    6.1863153158514734   12.6530701399773804 Ti
   9.1842962040000007    3.5350380808514736   12.6530701399773804 Ti
  10.7150122380000035    0.8837608458514733   12.6530701399773804 Ti
   6.1228641360000013   14.1401470208514688   12.6530701399773804 Ti
   7.6535801700000006   11.4888697858514703   12.6530701399773804 Ti
   9.1842962040000007    8.8375925508514719   12.6530701399773804 Ti
  10.7150122380000035    6.1863153158514717   12.6530701399773804 Ti
  12.2457282720000009    3.5350380808514719   12.6530701399773804 Ti
  13.7764443060000037    0.8837608458514733   12.6530701399773804 Ti
   9.1842962040000007   14.1401470208514688   12.6530701399773804 Ti
  10.7150122379999999   11.4888697858514703   12.6530701399773804 Ti
  12.2457282720000009    8.8375925508514719   12.6530701399773804 Ti
  13.7764443060000037    6.1863153158514717   12.6530701399773804 Ti
   0.0000000000000031    3.5350380808514714   12.6530701399773804 Ti
  12.2457282720000009   14.1401470208514706   12.6530701399773804 Ti
  13.7764443060000037   11.4888697858514739   12.6530701399773804 Ti
   0.0000000000000031    8.8375925508514719   12.6530701399773804 Ti
   0.0000000000000031   14.1401470208514688   12.6530701399773804 Ti
   1.5307160340000001   15.0239025641485249   17.3467569331516600 Ti
   1.5307160340000001    4.4187936241485257   17.3467569331516600 Ti
   3.0614320680000002    1.7675163891485257   17.3467569331516600 Ti
   4.5921481020000003   15.0239025641485249   17.3467569331516600 Ti
   1.5307160340000001    9.7213480941485244   17.3467569331516600 Ti
   3.0614320680000002    7.0700708591485260   17.3467569331516600 Ti
   4.5921481020000003    4.4187936241485257   17.3467569331516600 Ti
   6.1228641360000013    1.7675163891485275   17.3467569331516600 Ti
   7.6535801700000006   15.0239025641485249   17.3467569331516600 Ti
   3.0614320680000002   12.3726253291485246   17.3467569331516600 Ti
   4.5921481020000021    9.7213480941485244   17.3467569331516600 Ti
   6.1228641360000013    7.0700708591485260   17.3467569331516600 Ti
   7.6535801700000006    4.4187936241485275   17.3467569331516600 Ti
   9.1842962040000007    1.7675163891485275   17.3467569331516600 Ti
  10.7150122380000035   15.0239025641485249   17.3467569331516600 Ti
   6.1228641360000013   12.3726253291485246   17.3467569331516600 Ti
   7.6535801700000006    9.7213480941485244   17.3467569331516600 Ti
   9.1842962040000007    7.0700708591485260   17.3467569331516600 Ti
  10.7150122380000035    4.4187936241485275   17.3467569331516600 Ti
  12.2457282720000009    1.7675163891485259   17.3467569331516600 Ti
  13.7764443060000037   15.0239025641485249   17.3467569331516600 Ti
   9.1842962040000007   12.3726253291485246   17.3467569331516600 Ti
  10.7150122379999999    9.7213480941485244   17.3467569331516600 Ti
  12.2457282720000009    7.0700708591485242   17.3467569331516600 Ti
  13.7764443060000037    4.4187936241485257   17.3467569331516600 Ti
   0.0000000000000031    1.7675163891485257   17.3467569331516600 Ti
  12.2457282720000009   12.3726253291485264   17.3467569331516600 Ti
  13.7764443060000037    9.7213480941485280   17.3467569331516600 Ti
   0.0000000000000031    7.0700708591485242   17.3467569331516600 Ti
   0.0000000000000031   12.3726253291485246   17.3467569331516600 Ti
   0.0000000000000000    0.0000000000000000   15.0000287085258641 Ti
   0.0000000000000000    5.3025544699999987   15.0000287085258641 Ti
   1.5307160340000001    2.6512772349999985   15.0000287085258641 Ti
   3.0614320680000002    0.0000000000000001   15.0000287085258641 Ti
   0.0000000000000000   10.6051089399999956   15.0000287085258641 Ti
   1.5307160340000001    7.9538317049999971   15.0000287085258641 Ti
   3.0614320680000002    5.3025544699999987   15.0000287085258641 Ti
   4.5921481020000021    2.6512772350000002   15.0000287085258641 Ti
   6.1228641360000005    0.0000000000000002   15.0000287085258641 Ti
   1.5307160340000001   13.2563861749999976   15.0000287085258641 Ti
   3.0614320680000002   10.6051089399999956   15.0000287085258641 Ti
   4.5921481020000021    7.9538317049999971   15.0000287085258641 Ti
   6.1228641360000005    5.3025544700000005   15.0000287085258641 Ti
   7.6535801700000006    2.6512772350000002   15.0000287085258641 Ti
   9.1842962040000042    0.0000000000000002   15.0000287085258641 Ti
   4.5921481020000021   13.2563861749999976   15.0000287085258641 Ti
   6.1228641360000005   10.6051089399999956   15.0000287085258641 Ti
   7.6535801700000006    7.9538317049999971   15.0000287085258641 Ti
   9.1842962040000042    5.3025544699999987   15.0000287085258641 Ti
  10.7150122380000017    2.6512772349999989   15.0000287085258641 Ti
  12.2457282720000009    0.0000000000000003   15.0000287085258641 Ti
   7.6535801700000006   13.2563861749999976   15.0000287085258641 Ti
   9.1842962040000007   10.6051089399999956   15.0000287085258641 Ti
  10.7150122379999999    7.9538317049999971   15.0000287085258641 Ti
  12.2457282720000009    5.3025544699999987   15.0000287085258641 Ti
  13.7764443060000037    2.6512772349999989   15.0000287085258641 Ti
  10.7150122380000017   13.2563861749999994   15.0000287085258641 Ti
  12.2457282720000009   10.6051089399999992   15.0000287085258641 Ti
  13.7764443060000055    7.9538317049999971   15.0000287085258641 Ti
  13.7764443060000055   13.2563861749999976   15.0000287085258641 Ti
   1.5307160340000001   15.0239025641485249   13.7266814585268193 C
   1.5307160340000001    4.4187936241485257   13.7266814585268193 C
   3.0614320680000002    1.7675163891485257   13.7266814585268193 C
   4.5921481020000003   15.0239025641485249   13.7266814585268193 C
   1.5307160340000001    9.7213480941485244   13.7266814585268193 C
   3.0614320680000002    7.0700708591485260   13.7266814585268193 C
   4.5921481020000003    4.4187936241485257   13.7266814585268193 C
   6.1228641360000013    1.7675163891485275   13.7266814585268193 C
   7.6535801700000006   15.0239025641485249   13.7266814585268193 C
   3.0614320680000002   12.3726253291485246   13.7266814585268193 C
   4.5921481020000021    9.7213480941485244   13.7266814585268193 C
   6.1228641360000013    7.0700708591485260   13.7266814585268193 C
   7.6535801700000006    4.4187936241485275   13.7266814585268193 C
   9.1842962040000007    1.7675163891485275   13.7266814585268193 C
  10.7150122380000035   15.0239025641485249   13.7266814585268193 C
   6.1228641360000013   12.3726253291485246   13.7266814585268193 C
   7.6535801700000006    9.7213480941485244   13.7266814585268193 C
   9.1842962040000007    7.0700708591485260   13.7266814585268193 C
  10.7150122380000035    4.4187936241485275   13.7266814585268193 C
  12.2457282720000009    1.7675163891485259   13.7266814585268193 C
  13.7764443060000037   15.0239025641485249   13.7266814585268193 C
   9.1842962040000007   12.3726253291485246   13.7266814585268193 C
  10.7150122379999999    9.7213480941485244   13.7266814585268193 C
  12.2457282720000009    7.0700708591485242   13.7266814585268193 C
  13.7764443060000037    4.4187936241485257   13.7266814585268193 C
   0.0000000000000031    1.7675163891485257   13.7266814585268193 C
  12.2457282720000009   12.3726253291485264   13.7266814585268193 C
  13.7764443060000037    9.7213480941485280   13.7266814585268193 C
   0.0000000000000031    7.0700708591485242   13.7266814585268193 C
   0.0000000000000031   12.3726253291485246   13.7266814585268193 C
   1.5307160340000001    0.8837608458514730   16.2733261201747155 C
   1.5307160340000001    6.1863153158514717   16.2733261201747155 C
   3.0614320680000002    3.5350380808514714   16.2733261201747155 C
   4.5921481020000003    0.8837608458514731   16.2733261201747155 C
   1.5307160340000001   11.4888697858514703   16.2733261201747155 C
   3.0614320680000002    8.8375925508514719   16.2733261201747155 C
   4.5921481020000003    6.1863153158514717   16.2733261201747155 C
   6.1228641360000013    3.5350380808514732   16.2733261201747155 C
   7.6535801700000006    0.8837608458514732   16.2733261201747155 C
   3.0614320680000002   14.1401470208514688   16.2733261201747155 C
   4.5921481020000021   11.4888697858514703   16.2733261201747155 C
   6.1228641360000013    8.8375925508514719   16.2733261201747155 C
   7.6535801700000006    6.1863153158514734   16.2733261201747155 C
   9.1842962040000007    3.5350380808514736   16.2733261201747155 C
  10.7150122380000035    0.8837608458514733   16.2733261201747155 C
   6.1228641360000013   14.1401470208514688   16.2733261201747155 C
   7.6535801700000006   11.4888697858514703   16.2733261201747155 C
   9.1842962040000007    8.8375925508514719   16.2733261201747155 C
  10.7150122380000035    6.1863153158514717   16.2733261201747155 C
  12.2457282720000009    3.5350380808514719   16.2733261201747155 C
  13.7764443060000037    0.8837608458514733   16.2733261201747155 C
   9.1842962040000007   14.1401470208514688   16.2733261201747155 C
  10.7150122379999999   11.4888697858514703   16.2733261201747155 C
  12.2457282720000009    8.8375925508514719   16.2733261201747155 C
  13.7764443060000037    6.1863153158514717   16.2733261201747155 C
   0.0000000000000031    3.5350380808514714   16.2733261201747155 C
  12.2457282720000009   14.1401470208514706   16.2733261201747155 C
  13.7764443060000037   11.4888697858514739   16.2733261201747155 C
   0.0000000000000031    8.8375925508514719   16.2733261201747155 C
   0.0000000000000031   14.1401470208514688   16.2733261201747155 C
   0.0000000000000000   10.6051089930255440   18.6474379554565424 O
   1.5307160340000001   13.2563861219744528   18.6474379554565424 O
   0.0000000000000000    5.3025544169744547   18.6474379554565424 O
   1.5307160340000001    7.9538317049999989   18.6474379554565424 O
   4.5921481020000003   13.2563861219744528   18.6474379554565424 O
   0.0000000000000000    0.0000000000000000   18.6474379554565424 O
   1.5307160340000001    2.6512772880255442   18.6474379554565424 O
   3.0614320680000002    5.3025544169744547   18.6474379554565424 O
   4.5921481020000003    7.9538317049999989   18.6474379554565424 O
   3.0614320680000002    0.0000000000000001   18.6474379554565424 O
   4.5921481020000003    2.6512772880255442   18.6474379554565424 O
   6.1228641360000005    5.3025544169744547   18.6474379554565424 O
   9.1842962040000007   10.6051089930255440   18.6474379554565424 O
  10.7150122379999999   13.2563861219744528   18.6474379554565424 O
   6.1228641360000005    0.0000000000000002   18.6474379554565424 O
   7.6535801700000006    2.6512772880255442   18.6474379554565424 O
   9.1842962040000007    5.3025544169744547   18.6474379554565424 O
  10.7150122379999999    7.9538317049999989   18.6474379554565424 O
  12.2457282720000009   10.6051089930255440   18.6474379554565424 O
   9.1842962040000007    0.0000000000000002   18.6474379554565424 O
  12.2457282720000009    5.3025544169744547   18.6474379554565424 O
  13.7764443060000019    7.9538317049999989   18.6474379554565424 O
  12.2457282720000009    0.0000000000000003   18.6474379554565424 O
  13.7764443060000019    2.6512772880255446   18.6474379554565424 O
   0.0000000000000000   10.6051089930255440   11.3526379554565438 O
   1.5307160340000001   13.2563861219744528   11.3526379554565438 O
   0.0000000000000000    5.3025544169744547   11.3526379554565438 O
   1.5307160340000001    7.9538317049999989   11.3526379554565438 O
   4.5921481020000003   13.2563861219744528   11.3526379554565438 O
   0.0000000000000000    0.0000000000000000   11.3526379554565438 O
   1.5307160340000001    2.6512772880255442   11.3526379554565438 O
   3.0614320680000002    5.3025544169744547   11.3526379554565438 O
   4.5921481020000003    7.9538317049999989   11.3526379554565438 O
   3.0614320680000002    0.0000000000000001   11.3526379554565438 O
   4.5921481020000003    2.6512772880255442   11.3526379554565438 O
   6.1228641360000005    5.3025544169744547   11.3526379554565438 O
   9.1842962040000007   10.6051089930255440   11.3526379554565438 O
  10.7150122379999999   13.2563861219744528   11.3526379554565438 O
   6.1228641360000005    0.0000000000000002   11.3526379554565438 O
   7.6535801700000006    2.6512772880255442   11.3526379554565438 O
   9.1842962040000007    5.3025544169744547   11.3526379554565438 O
  10.7150122379999999    7.9538317049999989   11.3526379554565438 O
  12.2457282720000009   10.6051089930255440   11.3526379554565438 O
   9.1842962040000007    0.0000000000000002   11.3526379554565438 O
  12.2457282720000009    5.3025544169744547   11.3526379554565438 O
  13.7764443060000019    7.9538317049999989   11.3526379554565438 O
  12.2457282720000009    0.0000000000000003   11.3526379554565438 O
  13.7764443060000019    2.6512772880255446   11.3526379554565438 O
   0.0000000000000000   10.6051089930255440   19.5474379554565409 H
   1.5307160340000001   13.2563861219744528   19.5474379554565409 H
   0.0000000000000000    5.3025544169744547   19.5474379554565409 H
   1.5307160340000001    7.9538317049999989   19.5474379554565409 H
   4.5921481020000003   13.2563861219744528   19.5474379554565409 H
   0.0000000000000000    0.0000000000000000   19.5474379554565409 H
   1.5307160340000001    2.6512772880255442   19.5474379554565409 H
   3.0614320680000002    5.3025544169744547   19.5474379554565409 H
   4.5921481020000003    7.9538317049999989   19.5474379554565409 H
   3.0614320680000002    0.0000000000000001   19.5474379554565409 H
   4.5921481020000003    2.6512772880255442   19.5474379554565409 H
   6.1228641360000005    5.3025544169744547   19.5474379554565409 H
   9.1842962040000007   10.6051089930255440   19.5474379554565409 H
  10.7150122379999999   13.2563861219744528   19.5474379554565409 H
   6.1228641360000005    0.0000000000000002   19.5474379554565409 H
   7.6535801700000006    2.6512772880255442   19.5474379554565409 H
   9.1842962040000007    5.3025544169744547   19.5474379554565409 H
  10.7150122379999999    7.9538317049999989   19.5474379554565409 H
  12.2457282720000009   10.6051089930255440   19.5474379554565409 H
   9.1842962040000007    0.0000000000000002   19.5474379554565409 H
  12.2457282720000009    5.3025544169744547   19.5474379554565409 H
  13.7764443060000019    7.9538317049999989   19.5474379554565409 H
  12.2457282720000009    0.0000000000000003   19.5474379554565409 H
  13.7764443060000019    2.6512772880255446   19.5474379554565409 H
   0.0000000000000000   10.6051089930255440   10.4526379554565434 H
   1.5307160340000001   13.2563861219744528   10.4526379554565434 H
   0.0000000000000000    5.3025544169744547   10.4526379554565434 H
   1.5307160340000001    7.9538317049999989   10.4526379554565434 H
   4.5921481020000003   13.2563861219744528   10.4526379554565434 H
   0.0000000000000000    0.0000000000000000   10.4526379554565434 H
   1.5307160340000001    2.6512772880255442   10.4526379554565434 H
   3.0614320680000002    5.3025544169744547   10.4526379554565434 H
   4.5921481020000003    7.9538317049999989   10.4526379554565434 H
   3.0614320680000002    0.0000000000000001   10.4526379554565434 H
   4.5921481020000003    2.6512772880255442   10.4526379554565434 H
   6.1228641360000005    5.3025544169744547   10.4526379554565434 H
   9.1842962040000007   10.6051089930255440   10.4526379554565434 H
  10.7150122379999999   13.2563861219744528   10.4526379554565434 H
   6.1228641360000005    0.0000000000000002   10.4526379554565434 H
   7.6535801700000006    2.6512772880255442   10.4526379554565434 H
   9.1842962040000007    5.3025544169744547   10.4526379554565434 H
  10.7150122379999999    7.9538317049999989   10.4526379554565434 H
  12.2457282720000009   10.6051089930255440   10.4526379554565434 H
   9.1842962040000007    0.0000000000000002   10.4526379554565434 H
  12.2457282720000009    5.3025544169744547   10.4526379554565434 H
  13.7764443060000019    7.9538317049999989   10.4526379554565434 H
  12.2457282720000009    0.0000000000000003   10.4526379554565434 H
  13.7764443060000019    2.6512772880255446   10.4526379554565434 H
   3.0614320680000002   10.6051089930255440   18.6474379554565424 F
   6.1228641360000005   10.6051089930255440   18.6474379554565424 F
   7.6535801700000006   13.2563861219744528   18.6474379554565424 F
   7.6535801700000006    7.9538317049999989   18.6474379554565424 F
  13.7764443060000019   13.2563861219744528   18.6474379554565424 F
  10.7150122379999999    2.6512772880255446   18.6474379554565424 F
   3.0614320680000002   10.6051089930255440   11.3526379554565438 F
   6.1228641360000005   10.6051089930255440   11.3526379554565438 F
   7.6535801700000006   13.2563861219744528   11.3526379554565438 F
   7.6535801700000006    7.9538317049999989   11.3526379554565438 F
  13.7764443060000019   13.2563861219744528   11.3526379554565438 F
  10.7150122379999999    2.6512772880255446   11.3526379554565438 F
